language ESSENCE' 1.0
letting input=[64,61,34,1,77,47,38,59,22,65,74,30,52,79,76,31,47,74,14,89,54,80,16,9,6,20,15,51,9,81,39,63,43,27,8,56,71,11,46,14,90,38,63,73,89]
letting output=[30,39,25,32,54,16,22,12,56,22,70,59,33,39,49,31,15,17,60,17,5,21,56,60,59,3,61,49,38,2,34,54,22,50,25]
letting MAX_OPS=828
letting num_registers=1
